cases/pglib-opf/pglib_opf_case39_epri.m
ipopt
ACP
[info | PowerModels]: removing 1 cost terms from generator 8: [3155.0181, 0.0]
[info | PowerModels]: removing 1 cost terms from generator 4: [3484.4642999999996, 0.0]
[info | PowerModels]: removing 1 cost terms from generator 1: [672.4778, 0.0]
[info | PowerModels]: removing 1 cost terms from generator 5: [2465.2994, 0.0]
[info | PowerModels]: removing 1 cost terms from generator 2: [1470.7625, 0.0]
[info | PowerModels]: removing 1 cost terms from generator 6: [3230.6483, 0.0]
[info | PowerModels]: removing 1 cost terms from generator 7: [1815.7477, 0.0]
[info | PowerModels]: removing 1 cost terms from generator 10: [2743.4444, 0.0]
[info | PowerModels]: removing 1 cost terms from generator 9: [2250.3168, 0.0]
[info | PowerModels]: removing 1 cost terms from generator 3: [2480.4734, 0.0]

******************************************************************************
This program contains Ipopt, a library for large-scale nonlinear optimization.
 Ipopt is released as open source code under the Eclipse Public License (EPL).
         For more information visit http://projects.coin-or.org/Ipopt
******************************************************************************

This is Ipopt version 3.13.2, running with linear solver mumps.
NOTE: Other linear solvers might be more efficient (see Ipopt documentation).

Number of nonzeros in equality constraint Jacobian...:     1125
Number of nonzeros in inequality constraint Jacobian.:      368
Number of nonzeros in Lagrangian Hessian.............:     2024

Total number of variables............................:      282
                     variables with only lower bounds:        0
                variables with lower and upper bounds:      243
                     variables with only upper bounds:        0
Total number of equality constraints.................:      263
Total number of inequality constraints...............:      184
        inequality constraints with only lower bounds:       46
   inequality constraints with lower and upper bounds:        0
        inequality constraints with only upper bounds:      138

iter    objective    inf_pr   inf_du lg(mu)  ||d||  lg(rg) alpha_du alpha_pr  ls
   0  2.3768629e+02 1.10e+01 1.25e+01  -1.0 0.00e+00    -  0.00e+00 0.00e+00   0
   1  1.1096016e+04 1.02e+01 6.03e+01  -1.0 6.92e+00    -  1.45e-03 7.43e-02h  2
   2  2.0586599e+04 9.35e+00 5.53e+01  -1.0 1.21e+01    -  5.88e-02 8.41e-02h  4
   3  2.8045737e+04 8.65e+00 5.11e+01  -1.0 3.53e+01    -  1.19e-01 7.49e-02h  4
   4  3.4162191e+04 8.06e+00 4.76e+01  -1.0 5.29e+01    -  2.03e-01 6.79e-02h  4
   5  4.4158466e+04 7.09e+00 4.18e+01  -1.0 6.46e+01    -  2.50e-01 1.21e-01h  3
   6  5.4914495e+04 6.03e+00 3.55e+01  -1.0 7.52e+01    -  2.65e-01 1.50e-01h  2
   7  6.6043801e+04 4.95e+00 2.90e+01  -1.0 7.38e+01    -  5.73e-01 1.79e-01h  1
   8  7.6876928e+04 4.05e+00 2.38e+01  -1.0 5.15e+01    -  5.38e-01 1.80e-01h  1
   9  9.6582595e+04 2.65e+00 1.55e+01  -1.0 5.05e+01    -  3.04e-01 3.46e-01H  1
iter    objective    inf_pr   inf_du lg(mu)  ||d||  lg(rg) alpha_du alpha_pr  ls
  10  1.1317794e+05 1.47e+00 8.54e+00  -1.0 6.29e+01    -  3.50e-01 4.46e-01H  1
  11  1.1373986e+05 1.43e+00 1.46e+01  -1.0 3.33e+01    -  8.90e-01 2.45e-02h  1
  12  1.2662465e+05 6.62e-01 9.96e+00  -1.0 2.83e+01    -  1.00e+00 5.38e-01h  1
  13  1.3081353e+05 4.07e-01 4.65e+00  -1.0 5.24e+01    -  8.69e-01 3.86e-01h  1
  14  1.3171708e+05 3.56e-01 9.76e+00  -1.0 1.01e+01    -  3.50e-01 1.25e-01h  1
  15  1.3630115e+05 1.14e-01 2.18e+00  -1.0 6.05e+00    -  1.00e+00 6.81e-01h  1
  16  1.3815859e+05 2.30e-02 7.46e-01  -1.0 3.59e+00    -  8.11e-01 8.46e-01h  1
  17  1.3844499e+05 4.46e-03 1.00e-01  -1.7 1.19e+00    -  9.76e-01 1.00e+00h  1
  18  1.3842260e+05 3.88e-03 1.28e+00  -2.5 5.82e-01    -  1.00e+00 6.00e-01h  1
  19  1.3841745e+05 2.48e-03 9.52e+00  -2.5 5.85e-01    -  6.99e-01 1.00e+00h  1
iter    objective    inf_pr   inf_du lg(mu)  ||d||  lg(rg) alpha_du alpha_pr  ls
  20  1.3841745e+05 3.85e-05 7.32e-04  -2.5 5.45e-02    -  1.00e+00 1.00e+00h  1
  21  1.3841575e+05 4.57e-05 5.16e-02  -3.8 1.08e-01    -  9.11e-01 9.17e-01h  1
  22  1.3841566e+05 7.70e-06 2.95e-04  -3.8 1.89e-02    -  1.00e+00 1.00e+00h  1
  23  1.3841557e+05 3.47e-06 1.17e-01  -5.7 9.00e-03    -  9.92e-01 9.04e-01h  1
  24  1.3841556e+05 1.69e-07 2.44e-06  -5.7 1.56e-03    -  1.00e+00 1.00e+00h  1
  25  1.3841556e+05 1.86e-10 4.07e-06  -8.6 7.90e-05    -  1.00e+00 1.00e+00h  1
  26  1.3841556e+05 1.03e-13 2.68e-11  -8.6 5.30e-08    -  1.00e+00 1.00e+00f  1

Number of Iterations....: 26

                                   (scaled)                 (unscaled)
Objective...............:   3.9723627683248842e+03    1.3841556252877228e+05
Dual infeasibility......:   2.6817211213896954e-11    9.3443615100383593e-10
Constraint violation....:   3.8812456073925449e-14    1.0280665208028950e-13
Complementarity.........:   2.5059244704726095e-09    8.7318043558582109e-08
Overall NLP error.......:   2.5059244704726095e-09    8.7318043558582109e-08


Number of objective function evaluations             = 55
Number of objective gradient evaluations             = 27
Number of equality constraint evaluations            = 55
Number of inequality constraint evaluations          = 55
Number of equality constraint Jacobian evaluations   = 27
Number of inequality constraint Jacobian evaluations = 27
Number of Lagrangian Hessian evaluations             = 26
Total CPU secs in IPOPT (w/o function evaluations)   =      1.337
Total CPU secs in NLP function evaluations           =      2.336

EXIT: Optimal Solution Found.
Time to Solution........:4.393357038497925
